10
10
72203
0
0
27 38 17 28 30 23 29 32 24 22
1
0
2 3 9 9 4 3 6 9 4 6
2
0
56 53 28 26 42 41 53 55 38 43
3
0
7 14 9 14 10 10 5 9 15 13
4
0
14 27 10 15 7 8 17 11 11 14
5
0
68 60 52 48 70 52 72 74 53 45
6
0
144 143 121 137 164 132 144 141 144 159
7
0
78 94 82 118 103 84 109 111 101 98
8
0
20 43 18 25 18 32 25 39 36 39
9
0
18 15 22 16 25 17 18 23 23 19
